





























































































64 26 7 27 
39 57 13 
68 10 58 74 
35 72 52 66 
25 1 75 61 
20 0 21 
37 51 4 45 76 
41 8 59 
2 18 73 
65 55 43 67 
38 33 16 42 
29 54 15 69 36 
22 24 44 60 
50 31 3 5 
34 14 19 
71 48 49 62 
11 12 9 
56 47 53 
32 6 23 
17 40 63 
30 70 46 28 
